
Gurobi 9.5.0 (win64) logging started Tue Dec  7 01:35:26 2021

Set parameter LogFile to value "../results/logs/log_2021_12_07_01_34.csv_1_96.log"
Set parameter Method to value 3
Gurobi Optimizer version 9.5.0 build v9.5.0rc5 (win64)
Thread count: 6 physical cores, 12 logical processors, using up to 12 threads
Optimize a model with 12118 rows, 8078 columns and 726067 nonzeros
Model fingerprint: 0xd049518c
Variable types: 4039 continuous, 4039 integer (4039 binary)
Coefficient statistics:
  Matrix range     [1e+00, 1e+00]
  Objective range  [1e+00, 1e+00]
  Bounds range     [1e+00, 1e+00]
  RHS range        [1e+00, 1e+02]
Found heuristic solution: objective 4039.0000000

Explored 0 nodes (0 simplex iterations) in 0.03 seconds (0.02 work units)
Thread count was 1 (of 12 available processors)

Solution count 1: 4039 

Optimal solution found (tolerance 1.00e-04)
Best objective 4.039000000000e+03, best bound 4.039000000000e+03, gap 0.0000%
